# Solution for model CSSolver
x[0,1,0] 1
x[1,0,2] 1
x[2,2,0] 1
x[3,1,2] 1
x[4,0,0] 1
x[5,2,1] 1
x[6,2,2] 1
x[7,1,1] 1
x[8,2,4] 1
x[9,0,5] 1
x[10,2,5] 1
x[11,1,4] 1
x[12,1,5] 1
x[13,0,3] 1
x[14,2,3] 1
x[15,3,4] 1
x[16,3,1] 1
x[17,3,0] 1
x[18,0,1] 1
x[19,3,2] 1
x[20,3,3] 1
x[21,3,5] 1
x[22,1,3] 1
x[23,0,4] 1
x[24,1,6] 1
x[25,3,7] 1
x[26,1,7] 1
x[27,0,7] 1
x[28,0,6] 1
x[29,3,6] 1
x[30,2,7] 1
x[31,2,6] 1

y[0,1,0] 1
y[1,0,0] 1
y[2,2,0] 1
y[3,0,1] 1
y[4,2,1] 1
y[5,3,1] 1
y[6,1,1] 1
y[7,3,0] 1

Dy[4,1] 1
Dy[4,5] 1
Dy[4,6] 1
Dy[5,0] 1
Dy[5,4] 1
Dy[5,7] 1
Dy[6,2] 1
Dy[6,3] 1
Oy[7,2] 1
Oy[7,3] 1
Oy[8,1] 1
Oy[8,5] 1
Oy[8,6] 1
Oy[9,0] 1
Oy[9,4] 1
Oy[9,7] 1
xBP[1] 1
xBP[4] 1
xBP[5] 1
yBP[0,0] 1
yBP[0,1] 1
yBP[0,2] 1
yBP[0,3] 1
yBP[1,0] 1
yBP[1,1] 1
yBP[1,2] 1
yBP[1,3] 1
yBP[2,0] 1
yBP[2,1] 1
yBP[2,2] 1
yBP[2,3] 1
yBP[3,0] 1
yBP[3,1] 1
yBP[3,2] 1
yBP[3,3] 1
yBP[4,0] 1
yBP[4,1] 1
yBP[4,2] 1
yBP[4,3] 1
yBP[5,0] 1
yBP[5,1] 1
yBP[5,2] 1
yBP[5,3] 1
yBP[6,0] 1
yBP[6,1] 1
yBP[6,2] 1
yBP[6,3] 1
yBP[7,0] 1
yBP[7,1] 1
yBP[7,2] 1
yBP[7,3] 1
